# Solution for model r5_t18_m2_8
# Finished Task: 10 / 18
# Makespan: 433.0, Total Distance: 288.0, Total Time: 3.7909
# R O S F
0 0 20 0.0 0.0
1 1 18 0.0 0.0
2 2 10 0.0 0.0
3 3 -1 0.0 0.0
4 4 -1 0.0 0.0
5 0 15 334.0 369.0
6 -1 -1 300.0 326.0
7 1 11 286.0 313.0
8 -1 -1 399.0 433.0
9 0 5 274.0 306.0
10 2 -1 157.0 177.0
11 1 19 325.0 363.0
12 -1 -1 380.0 414.0
13 -1 -1 394.0 433.0
14 -1 -1 405.0 433.0
15 0 -1 387.0 414.0
16 -1 -1 326.0 357.0
17 -1 -1 357.0 380.0
18 1 7 198.0 220.0
19 1 22 363.0 388.0
20 0 9 220.0 249.0
21 -1 -1 388.0 414.0
22 1 -1 400.0 433.0
